# Test demo for LAPACK functions in ASPHERE package
# Lattice wall drop test

units           si
atom_style      ellipsoid
dimension       3
boundary        p p p 
comm_modify     vel yes
newton          off

neighbor 0.5 bin
neigh_modify   delay 0 every 1 check yes

# 1. Setup Simulation Box
# Expanded box to accommodate the floor and falling height
variable        box_length equal 25
variable        box_height equal 30

region          box block 0 25 0 25 0 30
create_box      2 box

# 3. Create Lattice Wall (Type 1)
# Use a dense lattice (spacing 1.0) to ensure no gaps in the Y-direction (size 1.0).
# Note: Overlap in X (size 2.0) is ignored because this group is frozen.

lattice         sc 1.0
region          floor_reg block 0 ${box_length} 0 ${box_length} 0 0.5

create_atoms    1 region floor_reg

# 4. Create Falling Particles (Type 2)
region          drop_zone block 5 20 5 20 10 ${box_height}
create_atoms    2 random 600 12345 drop_zone overlap 2.0 maxtry 1000 

# 2. Material Properties
# Type 1: Wall particles
set             type 1 mass 1.0
set             type 1 shape 1.0 1.0 1.0

# Type 2: Falling particles
set             type 2 mass 1.0
set             type 2 shape 2.0 1.0 1.0

# Initialize Superquadric "Blockiness" to 2.0 (Ellipsoid) 
# Necessary to prevent division-by-zero in the dump variables below
set             type 1 block 5.0 5.0 
set             type 2 block 5.0 5.0 

# 5. Define Groups
group           wall type 1
group           mobile type 2


# 6. Interaction / Pair Style
# Kept exactly as requested
pair_style      gran/hooke/history/ellipsoid 1e3 0.0 10.0 0.0 0.5 0 bounding_box
pair_coeff      * *

# 7. Computes and Output
compute         diameter all property/atom shapex shapey shapez
compute         orient all property/atom quatw quati quatj quatk
compute         block all property/atom block1 block2

# Define atom variables from block
variable        phi atom "2/c_block[2]"
variable        theta atom "2/c_block[1]"

dump            mydump all custom 100 dump_drop.lammpstrj id type x y z fx fy fz tqx tqy tqz c_diameter[*] c_orient[*] v_phi v_theta
# Explicit mapping for Ovito
dump_modify     mydump colname c_orient[1] quatw colname c_orient[2] quati colname c_orient[3] quatj colname c_orient[4] quatk

# 8. Dynamics
# Freeze the wall (Type 1) so it acts as a static floor
# fix             1 wall freeze

# Prevent the frozen wall particles (type 1) from interacting with each other
neigh_modify exclude group wall wall


# Apply gravity only to the mobile particles (Type 2)
fix             2 mobile gravity 9.81 vector 0 0 -1

# Integrate Equations of Motion (NVE/Asphere)
# Applied to all, but fix freeze overrides integration for the wall
fix             3 mobile nve/asphere

# 9. Run
thermo          1000
timestep        0.001
run             300000