# Lattice wall drop test

units           si
atom_style      ellipsoid superellipsoid
dimension       3
boundary        p p f 
comm_modify     vel yes
newton          off
processors      * * 1

neighbor 0.5 bin
neigh_modify   delay 0 every 1 check yes

# Setup Simulation Box
variable        box_length equal 9
variable        box_height equal 15

region          box block 0 ${box_length} 0 ${box_length} 0 ${box_height}
create_box      2 box

# Create Lattice Wall (Type 1)
lattice         sc 1.0
region          floor_reg block 0 ${box_length} 0 ${box_length} 0 0.1

variable        insertion_length equal ${box_length}-1.0

create_atoms    1 region floor_reg

# Create Falling Particles (Type 2)
region          drop_zone block 1 ${insertion_length} 1 ${insertion_length} 5 ${box_height}
create_atoms    2 random 100 12345 drop_zone overlap 2.0 maxtry 100

# Material Properties
# Type 1: Wall particles
set             type 1 mass 1.0
set             type 1 shape 1.0 1.0 1.0

# Type 2: Falling particles
set             type 2 mass 1.0
set             type 2 shape 2.0 1.0 1.0
variable        blockiness equal 4.0
set             type 1 block 4.0 4.0 
set             type 2 block ${blockiness} ${blockiness} 
set             type 2 quat/random 84729

# Define Groups
group           wall type 1
group           mobile type 2

# Interaction / Pair Style
pair_style granular/superellipsoid curvature_gaussian
pair_coeff * * hertz 10000.0 200.0 tangential classic 2850 0.0 0.5 damping viscoelastic
# Computes and Output
compute         diameter all property/atom shapex shapey shapez
compute         orient all property/atom quatw quati quatj quatk
compute         block all property/atom block1 block2

# Define atom variables from block
variable        phi atom "2/c_block[2]"
variable        theta atom "2/c_block[1]"

# dump            mydump all custom 1000 dump_drop_algebraic_block_${blockiness}_new_code.lammpstrj id type x y z fx fy fz tqx tqy tqz c_diameter[*] c_orient[*] v_phi v_theta
# # Explicit mapping for Ovito
# dump_modify     mydump colname c_orient[1] quatw colname c_orient[2] quati colname c_orient[3] quatj colname c_orient[4] quatk

# Prevent the frozen wall particles (type 1) from interacting with each other
neigh_modify exclude group wall wall

# Apply gravity only to the mobile particles (Type 2)
fix             2 mobile gravity 9.81 vector 0 0 -1

# Integrate Equations of Motion
fix             3 mobile nve/asphere

compute rke all erotate/asphere

# Run
thermo          1000
thermo_style  custom time step ke c_rke 

timestep        0.0001
run             20000
